proyfinal/src/viki/013/andrea/andrea-localstore/experimentInOfficeAgust.take6/worker_11/86f0eec0-1afe-480b-af3c-8fb9740459c9.als.cnf.out
Reading from standard input... Use '--help' for help.
============================[ Problem Statistics ]=============================
|                                                                             |
|  Number of variables:         87638                                         |
|  Number of clauses:          161767                                         |
|  Parse time:                   0.04 s                                       |
|                                                                             |
============================[ Search Statistics ]==============================
| Conflicts |          ORIGINAL         |          LEARNT          | Progress |
|           |    Vars  Clauses Literals |    Limit  Clauses Lit/Cl |          |
===============================================================================
|       100 |   63787   110202   275592 |    40407      100     11 | 27.215 % |
|       250 |   63787   110202   275592 |    44448      250     38 | 27.215 % |
|       475 |   63787   110202   275592 |    48892      475     38 | 27.215 % |
|       812 |   63787   110202   275592 |    53782      812     62 | 27.215 % |
|      1318 |   63785   110197   275577 |    59160     1317     67 | 27.218 % |
|      2077 |   63785   110197   275577 |    65076     2076     67 | 27.218 % |
|      3216 |   63785   110197   275577 |    71584     3215     68 | 27.218 % |
|      4924 |   63785   110197   275577 |    78742     4923     66 | 27.218 % |
|      7486 |   63747   110112   275405 |    86616     7408     75 | 27.261 % |
===============================================================================
restarts              : 42
conflicts             : 9689           (5952 /sec)
decisions             : 33615          (0.00 % random) (20650 /sec)
propagations          : 16648794       (10227556 /sec)
conflict literals     : 692675         (59.89 % deleted)
Memory used           : 27.19 MB
CPU time              : 1.62784 s

UNSATISFIABLE
